c Result of efficient AIG-to-CNF conversion using package CNF
p cnf 569 2060
-2 3 362 421 454 0
2 -3 0
2 -454 0
2 -421 0
2 -362 0
3 -4 -235 0
3 -4 5 -61 0
-3 4 0
-3 -5 235 0
-3 61 235 0
4 -537 -538 -539 -540 0
-4 540 0
-4 537 0
-4 539 0
-4 538 0
5 -6 28 -48 0
5 -6 -28 -29 0
-5 6 0
-5 -28 29 0
-5 28 48 0
6 -7 8 -9 -14 0
-6 14 0
-6 7 0
-6 9 0
-6 -8 0
7 -557 -558 0
-7 557 0
-7 558 0
-8 521 522 0
8 -521 0
8 -522 0
9 -10 11 -13 0
-9 10 0
-9 -11 0
-9 13 0
10 -552 -553 -554 0
-10 552 0
-10 553 0
-10 554 0
-11 524 525 526 12 0
11 -12 0
11 -526 0
11 -524 0
11 -525 0
-12 523 529 530 531 0
12 -531 0
12 -530 0
12 -523 0
12 -529 0
13 -561 -562 -563 0
-13 561 0
-13 562 0
-13 563 0
14 -15 -20 -21 22 0
-14 -22 0
-14 15 0
-14 21 0
-14 20 0
15 -551 -4 -16 0
-15 551 0
-15 4 0
-15 16 0
16 -544 -546 -17 -19 0
-16 19 0
-16 544 0
-16 17 0
-16 546 0
17 -543 -545 -547 -18 0
-17 18 0
-17 543 0
-17 547 0
-17 545 0
18 -541 -542 0
-18 541 0
-18 542 0
19 -548 -549 -550 0
-19 548 0
-19 549 0
-19 550 0
20 -555 -556 0
-20 555 0
-20 556 0
21 -559 -560 0
-21 559 0
-21 560 0
-22 23 24 25 27 0
22 -27 0
22 -23 0
22 -25 0
22 -24 0
-23 505 508 511 512 0
23 -512 0
23 -511 0
23 -505 0
23 -508 0
-24 506 507 513 514 0
24 -514 0
24 -513 0
24 -506 0
24 -507 0
-25 516 517 518 26 0
25 -26 0
25 -518 0
25 -516 0
25 -517 0
-26 509 510 515 0
26 -509 0
26 -515 0
26 -510 0
-27 519 520 527 528 0
27 -528 0
27 -527 0
27 -519 0
27 -520 0
28 532 -564 0
-28 -532 0
-28 564 0
-29 -30 31 0
-29 30 41 0
29 -30 -31 0
29 30 -41 0
30 533 -565 0
-30 -533 0
-30 565 0
-31 -32 33 0
-31 32 38 0
31 -32 -33 0
31 32 -38 0
32 534 -566 0
-32 -534 0
-32 566 0
-33 -34 37 0
-33 34 35 0
33 34 -35 0
33 -34 -37 0
34 535 -567 0
-34 -535 0
-34 567 0
35 -509 36 0
35 -508 -36 0
-35 509 36 0
-35 508 -36 0
36 536 -568 0
-36 -536 0
-36 568 0
37 -507 36 0
37 -506 -36 0
-37 507 36 0
-37 506 -36 0
38 -34 -39 0
38 34 -40 0
-38 34 40 0
-38 -34 39 0
39 -511 36 0
39 -510 -36 0
-39 511 36 0
-39 510 -36 0
40 -513 36 0
40 -512 -36 0
-40 513 36 0
-40 512 -36 0
41 -32 -42 0
41 32 -45 0
-41 32 45 0
-41 -32 42 0
42 -34 -43 0
42 34 -44 0
-42 34 44 0
-42 -34 43 0
43 -515 36 0
43 -514 -36 0
-43 515 36 0
-43 514 -36 0
44 -517 36 0
44 -516 -36 0
-44 517 36 0
-44 516 -36 0
45 -34 -46 0
45 34 -47 0
-45 34 47 0
-45 -34 46 0
46 -519 36 0
46 -518 -36 0
-46 519 36 0
-46 518 -36 0
47 -521 36 0
47 -520 -36 0
-47 521 36 0
-47 520 -36 0
48 -30 -49 0
48 30 -56 0
-48 30 56 0
-48 -30 49 0
49 -32 -50 0
49 32 -53 0
-49 32 53 0
-49 -32 50 0
50 -34 -51 0
50 34 -52 0
-50 34 52 0
-50 -34 51 0
51 -523 36 0
51 -522 -36 0
-51 523 36 0
-51 522 -36 0
52 -525 36 0
52 -524 -36 0
-52 525 36 0
-52 524 -36 0
53 -34 -54 0
53 34 -55 0
-53 34 55 0
-53 -34 54 0
54 -527 36 0
54 -526 -36 0
-54 527 36 0
-54 526 -36 0
55 -529 36 0
55 -528 -36 0
-55 529 36 0
-55 528 -36 0
56 -32 -57 0
56 32 -34 -60 0
-56 -32 57 0
-56 32 34 0
-56 32 60 0
57 -34 -58 0
57 34 -59 0
-57 34 59 0
-57 -34 58 0
58 -531 36 0
58 -530 -36 0
-58 531 36 0
-58 530 -36 0
59 -533 36 0
59 -532 -36 0
-59 533 36 0
-59 532 -36 0
60 -535 36 0
60 -534 -36 0
-60 535 36 0
-60 534 -36 0
61 564 -207 -209 0
61 -564 -62 -207 0
-61 207 0
-61 -564 62 0
-61 564 209 0
62 -565 -63 0
62 565 -180 0
-62 565 180 0
-62 -565 63 0
63 -566 -64 0
63 566 -151 0
-63 566 151 0
-63 -566 64 0
64 -567 -65 0
64 567 -123 0
-64 567 123 0
-64 -567 65 0
65 -568 -66 0
65 568 -95 0
-65 568 95 0
-65 -568 66 0
66 -532 67 -83 0
66 532 67 -68 0
-66 -67 0
-66 -532 83 0
-66 532 68 0
-67 521 522 11 22 0
67 -521 0
67 -22 0
67 -11 0
67 -522 0
-68 533 69 0
-68 -533 76 0
68 -533 -76 0
68 533 -69 0
-69 534 70 0
-69 -534 73 0
69 -534 -73 0
69 534 -70 0
-70 535 72 0
-70 -535 71 0
70 -535 -71 0
70 535 -72 0
71 -509 -536 0
71 -508 536 0
-71 508 536 0
-71 509 -536 0
72 -507 -536 0
72 -506 536 0
-72 506 536 0
-72 507 -536 0
73 535 -74 0
73 -535 -75 0
-73 -535 75 0
-73 535 74 0
74 -511 -536 0
74 -510 536 0
-74 510 536 0
-74 511 -536 0
75 -513 -536 0
75 -512 536 0
-75 512 536 0
-75 513 -536 0
76 534 -77 0
76 -534 -80 0
-76 -534 80 0
-76 534 77 0
77 535 -78 0
77 -535 -79 0
-77 -535 79 0
-77 535 78 0
78 -515 -536 0
78 -514 536 0
-78 514 536 0
-78 515 -536 0
79 -517 -536 0
79 -516 536 0
-79 516 536 0
-79 517 -536 0
80 535 -81 0
80 -535 -82 0
-80 -535 82 0
-80 535 81 0
81 -519 -536 0
81 -518 536 0
-81 518 536 0
-81 519 -536 0
82 -521 -536 0
82 -520 536 0
-82 520 536 0
-82 521 -536 0
83 533 -84 0
83 -533 -91 0
-83 -533 91 0
-83 533 84 0
84 534 -85 0
84 -534 -88 0
-84 -534 88 0
-84 534 85 0
85 535 -86 0
85 -535 -87 0
-85 -535 87 0
-85 535 86 0
86 -523 -536 0
86 -522 536 0
-86 522 536 0
-86 523 -536 0
87 -525 -536 0
87 -524 536 0
-87 524 536 0
-87 525 -536 0
88 535 -89 0
88 -535 -90 0
-88 -535 90 0
-88 535 89 0
89 -527 -536 0
89 -526 536 0
-89 526 536 0
-89 527 -536 0
90 -529 -536 0
90 -528 536 0
-90 528 536 0
-90 529 -536 0
-91 -534 -535 0
-91 534 92 0
-91 -534 -536 0
91 534 -92 0
91 -534 535 536 0
92 535 -93 0
92 -535 -94 0
-92 -535 94 0
-92 535 93 0
93 -531 -536 0
93 -530 536 0
-93 530 536 0
-93 531 -536 0
94 -533 -536 0
94 -532 536 0
-94 532 536 0
-94 533 -536 0
95 -532 67 -111 0
95 532 67 -96 0
-95 -67 0
-95 -532 111 0
-95 532 96 0
-96 533 97 0
-96 -533 104 0
96 -533 -104 0
96 533 -97 0
-97 534 98 0
-97 -534 101 0
97 -534 -101 0
97 534 -98 0
-98 535 100 0
-98 -535 99 0
98 -535 -99 0
98 535 -100 0
99 -510 -536 0
99 -509 536 0
-99 509 536 0
-99 510 -536 0
100 -508 -536 0
100 -507 536 0
-100 507 536 0
-100 508 -536 0
101 535 -102 0
101 -535 -103 0
-101 -535 103 0
-101 535 102 0
102 -512 -536 0
102 -511 536 0
-102 511 536 0
-102 512 -536 0
103 -514 -536 0
103 -513 536 0
-103 513 536 0
-103 514 -536 0
104 534 -105 0
104 -534 -108 0
-104 -534 108 0
-104 534 105 0
105 535 -106 0
105 -535 -107 0
-105 -535 107 0
-105 535 106 0
106 -516 -536 0
106 -515 536 0
-106 515 536 0
-106 516 -536 0
107 -518 -536 0
107 -517 536 0
-107 517 536 0
-107 518 -536 0
108 535 -109 0
108 -535 -110 0
-108 -535 110 0
-108 535 109 0
109 -520 -536 0
109 -519 536 0
-109 519 536 0
-109 520 -536 0
110 -522 -536 0
110 -521 536 0
-110 521 536 0
-110 522 -536 0
111 533 -112 0
111 -533 -119 0
-111 -533 119 0
-111 533 112 0
112 534 -113 0
112 -534 -116 0
-112 -534 116 0
-112 534 113 0
113 535 -114 0
113 -535 -115 0
-113 -535 115 0
-113 535 114 0
114 -524 -536 0
114 -523 536 0
-114 523 536 0
-114 524 -536 0
115 -526 -536 0
115 -525 536 0
-115 525 536 0
-115 526 -536 0
116 535 -117 0
116 -535 -118 0
-116 -535 118 0
-116 535 117 0
117 -528 -536 0
117 -527 536 0
-117 527 536 0
-117 528 -536 0
118 -530 -536 0
118 -529 536 0
-118 529 536 0
-118 530 -536 0
119 534 -120 0
119 -534 535 -536 0
-119 -534 -535 0
-119 534 120 0
-119 -534 536 0
120 535 -121 0
120 -535 -122 0
-120 -535 122 0
-120 535 121 0
121 -532 -536 0
121 -531 536 0
-121 531 536 0
-121 532 -536 0
122 -534 -536 0
122 -533 536 0
-122 533 536 0
-122 534 -536 0
123 -568 -124 0
123 568 -138 0
-123 568 138 0
-123 -568 124 0
124 -532 67 -132 0
124 532 67 -125 0
-124 -67 0
-124 -532 132 0
-124 532 125 0
-125 533 126 0
-125 -533 129 0
125 -533 -129 0
125 533 -126 0
-126 534 127 0
-126 -534 128 0
126 -534 -128 0
126 534 -127 0
-127 -535 74 0
-127 535 71 0
127 535 -71 0
127 -535 -74 0
128 535 -75 0
128 -535 -78 0
-128 -535 78 0
-128 535 75 0
129 534 -130 0
129 -534 -131 0
-129 -534 131 0
-129 534 130 0
130 535 -79 0
130 -535 -81 0
-130 -535 81 0
-130 535 79 0
131 535 -82 0
131 -535 -86 0
-131 -535 86 0
-131 535 82 0
132 533 -133 0
132 -533 -136 0
-132 -533 136 0
-132 533 133 0
133 534 -134 0
133 -534 -135 0
-133 -534 135 0
-133 534 134 0
134 535 -87 0
134 -535 -89 0
-134 -535 89 0
-134 535 87 0
135 535 -90 0
135 -535 -93 0
-135 -535 93 0
-135 535 90 0
136 534 -137 0
-136 -534 0
-136 137 0
137 -534 -535 0
137 535 -94 0
137 -535 -536 0
-137 535 94 0
-137 534 -535 536 0
138 -532 67 -146 0
138 532 67 -139 0
-138 -67 0
-138 -532 146 0
-138 532 139 0
-139 533 140 0
-139 -533 143 0
139 -533 -143 0
139 533 -140 0
-140 534 142 0
-140 -534 141 0
140 -534 -141 0
140 534 -142 0
141 535 -103 0
141 -535 -106 0
-141 -535 106 0
-141 535 103 0
142 535 -99 0
142 -535 -102 0
-142 -535 102 0
-142 535 99 0
143 534 -144 0
143 -534 -145 0
-143 -534 145 0
-143 534 144 0
144 535 -107 0
144 -535 -109 0
-144 -535 109 0
-144 535 107 0
145 535 -110 0
145 -535 -114 0
-145 -535 114 0
-145 535 110 0
146 533 -147 0
146 -533 -150 0
-146 -533 150 0
-146 533 147 0
147 534 -148 0
147 -534 -149 0
-147 -534 149 0
-147 534 148 0
148 535 -115 0
148 -535 -117 0
-148 -535 117 0
-148 535 115 0
149 535 -118 0
149 -535 -121 0
-149 -535 121 0
-149 535 118 0
150 534 -535 0
150 -533 534 536 0
-150 -534 0
-150 535 -536 0
-150 533 535 0
151 -567 -152 0
151 567 -166 0
-151 567 166 0
-151 -567 152 0
152 -568 -153 0
152 568 -159 0
-152 568 159 0
-152 -568 153 0
153 -532 67 -157 0
153 532 67 -154 0
-153 -67 0
-153 -532 157 0
-153 532 154 0
154 533 -155 0
154 -533 -156 0
-154 -533 156 0
-154 533 155 0
155 534 -73 0
155 -534 -77 0
-155 -534 77 0
-155 534 73 0
156 534 -80 0
156 -534 -85 0
-156 -534 85 0
-156 534 80 0
157 533 -158 0
-157 -533 0
-157 158 0
158 534 -88 0
158 -534 -92 0
-158 -534 92 0
-158 534 88 0
159 -532 67 -163 0
159 532 67 -160 0
-159 -67 0
-159 -532 163 0
-159 532 160 0
-160 533 161 0
-160 -533 162 0
160 -533 -162 0
160 533 -161 0
-161 -534 105 0
-161 534 101 0
161 534 -101 0
161 -534 -105 0
162 534 -108 0
162 -534 -113 0
-162 -534 113 0
-162 534 108 0
163 533 -164 0
163 -533 -165 0
-163 -533 165 0
-163 533 164 0
164 534 -116 0
164 -534 -120 0
-164 -534 120 0
-164 534 116 0
165 534 535 -536 0
-165 536 0
-165 -535 0
-165 -534 0
166 -568 -167 0
166 568 -173 0
-166 568 173 0
-166 -568 167 0
167 -532 67 -171 0
167 532 67 -168 0
-167 -67 0
-167 -532 171 0
-167 532 168 0
168 533 -169 0
168 -533 -170 0
-168 -533 170 0
-168 533 169 0
169 534 -128 0
169 -534 -130 0
-169 -534 130 0
-169 534 128 0
170 534 -131 0
170 -534 -134 0
-170 -534 134 0
-170 534 131 0
171 533 -172 0
-171 -533 0
-171 172 0
172 -534 -535 0
172 534 -135 0
172 -534 -94 0
-172 534 135 0
-172 -534 535 94 0
173 -532 67 -177 0
173 532 67 -174 0
-173 -67 0
-173 -532 177 0
-173 532 174 0
174 533 -175 0
174 -533 -176 0
-174 -533 176 0
-174 533 175 0
175 534 -141 0
175 -534 -144 0
-175 -534 144 0
-175 534 141 0
176 534 -145 0
176 -534 -148 0
-176 -534 148 0
-176 534 145 0
177 533 -178 0
-177 -533 0
-177 178 0
178 534 -149 0
178 -534 -179 0
-178 -534 179 0
-178 534 149 0
-179 534 535 -536 0
-179 533 535 536 0
179 -535 0
179 -533 536 0
179 -534 -536 0
180 -566 -181 0
180 566 -196 0
-180 566 196 0
-180 -566 181 0
181 -567 -182 0
181 567 -189 0
-181 567 189 0
-181 -567 182 0
182 -568 -183 0
182 568 -186 0
-182 568 186 0
-182 -568 183 0
183 -532 67 -185 0
183 532 67 -184 0
-183 -67 0
-183 -532 185 0
-183 532 184 0
184 533 -76 0
184 -533 -84 0
-184 -533 84 0
-184 533 76 0
185 533 -91 0
-185 -533 0
-185 91 0
186 -532 67 -188 0
186 532 67 -187 0
-186 -67 0
-186 -532 188 0
-186 532 187 0
187 533 -104 0
187 -533 -112 0
-187 -533 112 0
-187 533 104 0
188 533 -119 0
-188 -533 0
-188 119 0
189 -568 -190 0
189 568 -193 0
-189 568 193 0
-189 -568 190 0
190 -532 67 -192 0
190 532 67 -191 0
-190 -67 0
-190 -532 192 0
-190 532 191 0
191 533 -129 0
191 -533 -133 0
-191 -533 133 0
-191 533 129 0
192 533 -136 0
-192 -533 0
-192 136 0
193 -532 67 -195 0
193 532 67 -194 0
-193 -67 0
-193 -532 195 0
-193 532 194 0
194 533 -143 0
194 -533 -147 0
-194 -533 147 0
-194 533 143 0
195 533 534 -535 0
-195 535 0
-195 -534 0
-195 -533 0
196 -567 -197 0
196 567 -203 0
-196 567 203 0
-196 -567 197 0
197 -568 -198 0
197 568 -200 0
-197 568 200 0
-197 -568 198 0
198 533 -156 199 0
198 -533 -158 199 0
-198 -199 0
-198 -533 158 0
-198 533 156 0
-199 532 67 0
199 -532 0
199 -67 0
200 -532 67 -202 0
200 532 67 -201 0
-200 -67 0
-200 -532 202 0
-200 532 201 0
201 533 -162 0
201 -533 -164 0
-201 -533 164 0
-201 533 162 0
202 533 534 535 -536 0
-202 536 0
-202 -535 0
-202 -533 0
-202 -534 0
203 -568 -204 0
203 568 -205 0
-203 568 205 0
-203 -568 204 0
204 533 -170 199 0
204 -533 -172 199 0
-204 -199 0
-204 -533 172 0
-204 533 170 0
205 199 -206 0
-205 -199 0
-205 206 0
206 533 -176 0
206 -533 -178 0
-206 -533 178 0
-206 533 176 0
207 -10 -16 -21 -208 0
-207 208 0
-207 10 0
-207 21 0
-207 16 0
208 -551 -7 -13 -20 0
-208 20 0
-208 551 0
-208 13 0
-208 7 0
209 -565 -210 0
209 565 -224 0
-209 565 224 0
-209 -565 210 0
210 -566 -211 0
210 566 -218 0
-210 566 218 0
-210 -566 211 0
211 -567 -212 0
211 567 -215 0
-211 567 215 0
-211 -567 212 0
212 -568 -213 0
212 568 -214 0
-212 568 214 0
-212 -568 213 0
213 -83 199 0
-213 83 0
-213 -199 0
214 -111 199 0
-214 111 0
-214 -199 0
215 -568 -216 0
215 568 -217 0
-215 568 217 0
-215 -568 216 0
216 -132 199 0
-216 132 0
-216 -199 0
217 -146 199 0
-217 146 0
-217 -199 0
218 -567 -219 0
218 567 -221 0
-218 567 221 0
-218 -567 219 0
219 568 -220 0
-219 -568 0
-219 220 0
220 -163 199 0
-220 163 0
-220 -199 0
221 -568 -222 0
221 568 -223 0
-221 568 223 0
-221 -568 222 0
222 -171 199 0
-222 171 0
-222 -199 0
223 -177 199 0
-223 177 0
-223 -199 0
224 -566 -225 0
224 566 -232 0
-224 566 232 0
-224 -566 225 0
225 -567 -226 0
225 567 -229 0
-225 567 229 0
-225 -567 226 0
226 -568 -227 0
226 568 -228 0
-226 568 228 0
-226 -568 227 0
227 -185 199 0
-227 185 0
-227 -199 0
228 -188 199 0
-228 188 0
-228 -199 0
229 -568 -230 0
229 568 -231 0
-229 568 231 0
-229 -568 230 0
230 -192 199 0
-230 192 0
-230 -199 0
231 533 534 -535 199 0
-231 -533 0
-231 -199 0
-231 535 0
-231 -534 0
232 -567 -233 0
-232 567 0
-232 233 0
233 568 -234 0
-233 -568 0
-233 234 0
234 199 -202 0
-234 -199 0
-234 202 0
-235 -236 264 0
-235 250 264 0
235 -264 0
235 236 -250 0
236 -6 28 -244 0
236 -6 -28 -237 0
-236 6 0
-236 -28 237 0
-236 28 244 0
-237 -30 238 0
-237 30 241 0
237 -30 -238 0
237 30 -241 0
-238 -32 239 0
-238 32 240 0
238 -32 -239 0
238 32 -240 0
-239 34 39 0
-239 -34 35 0
239 -34 -35 0
239 34 -39 0
240 -34 -40 0
240 34 -43 0
-240 34 43 0
-240 -34 40 0
241 -32 -242 0
241 32 -243 0
-241 32 243 0
-241 -32 242 0
242 -34 -44 0
242 34 -46 0
-242 34 46 0
-242 -34 44 0
243 -34 -47 0
243 34 -51 0
-243 34 51 0
-243 -34 47 0
244 -30 -245 0
244 30 -248 0
-244 30 248 0
-244 -30 245 0
245 -32 -246 0
245 32 -247 0
-245 32 247 0
-245 -32 246 0
246 -34 -52 0
246 34 -54 0
-246 34 54 0
-246 -34 52 0
247 -34 -55 0
247 34 -58 0
-247 34 58 0
-247 -34 55 0
248 -32 -249 0
-248 32 0
-248 249 0
249 -34 -59 0
249 34 -60 0
-249 34 60 0
-249 -34 59 0
250 564 -207 -258 0
250 -564 -207 -251 0
-250 207 0
-250 -564 251 0
-250 564 258 0
251 -565 -252 0
251 565 -255 0
-251 565 255 0
-251 -565 252 0
252 -566 -253 0
252 566 -254 0
-252 566 254 0
-252 -566 253 0
253 -567 -123 0
253 567 -152 0
-253 567 152 0
-253 -567 123 0
254 -567 -166 0
254 567 -182 0
-254 567 182 0
-254 -567 166 0
255 -566 -256 0
255 566 -257 0
-255 566 257 0
-255 -566 256 0
256 -567 -189 0
256 567 -197 0
-256 567 197 0
-256 -567 189 0
257 -567 -203 0
257 567 -212 0
-257 567 212 0
-257 -567 203 0
258 -565 -259 0
258 565 -262 0
-258 565 262 0
-258 -565 259 0
259 -566 -260 0
259 566 -261 0
-259 566 261 0
-259 -566 260 0
260 -567 -215 0
260 567 -219 0
-260 567 219 0
-260 -567 215 0
261 -567 -221 0
261 567 -226 0
-261 567 226 0
-261 -567 221 0
262 -566 -263 0
-262 566 0
-262 263 0
263 -567 -229 0
263 567 -233 0
-263 567 233 0
-263 -567 229 0
-264 -265 341 0
-264 294 -324 0
-264 294 341 0
-264 -265 -324 0
264 265 -294 0
264 324 -341 0
265 -6 28 -281 0
265 -6 -28 -266 0
-265 6 0
-265 -28 266 0
-265 28 281 0
-266 -30 267 0
-266 30 274 0
266 -30 -267 0
266 30 -274 0
-267 -32 268 0
-267 32 271 0
267 -32 -268 0
267 32 -271 0
-268 -34 270 0
-268 34 269 0
268 34 -269 0
268 -34 -270 0
269 -510 36 0
269 -509 -36 0
-269 510 36 0
-269 509 -36 0
270 -508 36 0
270 -507 -36 0
-270 508 36 0
-270 507 -36 0
271 -34 -272 0
271 34 -273 0
-271 34 273 0
-271 -34 272 0
272 -512 36 0
272 -511 -36 0
-272 512 36 0
-272 511 -36 0
273 -514 36 0
273 -513 -36 0
-273 514 36 0
-273 513 -36 0
274 -32 -275 0
274 32 -278 0
-274 32 278 0
-274 -32 275 0
275 -34 -276 0
275 34 -277 0
-275 34 277 0
-275 -34 276 0
276 -516 36 0
276 -515 -36 0
-276 516 36 0
-276 515 -36 0
277 -518 36 0
277 -517 -36 0
-277 518 36 0
-277 517 -36 0
278 -34 -279 0
278 34 -280 0
-278 34 280 0
-278 -34 279 0
279 -520 36 0
279 -519 -36 0
-279 520 36 0
-279 519 -36 0
280 -522 36 0
280 -521 -36 0
-280 522 36 0
-280 521 -36 0
281 -30 -282 0
281 30 -289 0
-281 30 289 0
-281 -30 282 0
282 -32 -283 0
282 32 -286 0
-282 32 286 0
-282 -32 283 0
283 -34 -284 0
283 34 -285 0
-283 34 285 0
-283 -34 284 0
284 -524 36 0
284 -523 -36 0
-284 524 36 0
-284 523 -36 0
285 -526 36 0
285 -525 -36 0
-285 526 36 0
-285 525 -36 0
286 -34 -287 0
286 34 -288 0
-286 34 288 0
-286 -34 287 0
287 -528 36 0
287 -527 -36 0
-287 528 36 0
-287 527 -36 0
288 -530 36 0
288 -529 -36 0
-288 530 36 0
-288 529 -36 0
289 -32 -290 0
289 32 -293 0
-289 32 293 0
-289 -32 290 0
290 -34 -291 0
290 34 -292 0
-290 34 292 0
-290 -34 291 0
291 -532 36 0
291 -531 -36 0
-291 532 36 0
-291 531 -36 0
292 -534 36 0
292 -533 -36 0
-292 534 36 0
-292 533 -36 0
293 535 -536 -567 0
-293 567 0
-293 536 0
-293 -535 0
294 564 -207 -310 0
294 -564 -207 -295 0
-294 207 0
-294 -564 295 0
-294 564 310 0
295 -565 -296 0
295 565 -303 0
-295 565 303 0
-295 -565 296 0
296 -566 -297 0
296 566 -300 0
-296 566 300 0
-296 -566 297 0
297 -567 -298 0
297 567 -299 0
-297 567 299 0
-297 -567 298 0
298 -568 -95 0
298 568 -124 0
-298 568 124 0
-298 -568 95 0
299 -568 -138 0
299 568 -153 0
-299 568 153 0
-299 -568 138 0
300 -567 -301 0
300 567 -302 0
-300 567 302 0
-300 -567 301 0
301 -568 -159 0
301 568 -167 0
-301 568 167 0
-301 -568 159 0
302 -568 -173 0
302 568 -183 0
-302 568 183 0
-302 -568 173 0
303 -566 -304 0
303 566 -307 0
-303 566 307 0
-303 -566 304 0
304 -567 -305 0
304 567 -306 0
-304 567 306 0
-304 -567 305 0
305 -568 -186 0
305 568 -190 0
-305 568 190 0
-305 -568 186 0
306 -568 -193 0
306 568 -198 0
-306 568 198 0
-306 -568 193 0
307 -567 -308 0
307 567 -309 0
-307 567 309 0
-307 -567 308 0
308 -568 -200 0
308 568 -204 0
-308 568 204 0
-308 -568 200 0
309 -568 -205 0
309 568 -213 0
-309 568 213 0
-309 -568 205 0
310 -565 -311 0
310 565 -318 0
-310 565 318 0
-310 -565 311 0
311 -566 -312 0
311 566 -315 0
-311 566 315 0
-311 -566 312 0
312 -567 -313 0
312 567 -314 0
-312 567 314 0
-312 -567 313 0
313 -568 -214 0
313 568 -216 0
-313 568 216 0
-313 -568 214 0
314 -568 -217 0
-314 568 0
-314 217 0
315 -567 -316 0
315 567 -317 0
-315 567 317 0
-315 -567 316 0
316 -568 -220 0
316 568 -222 0
-316 568 222 0
-316 -568 220 0
317 -568 -223 0
317 568 -227 0
-317 568 227 0
-317 -568 223 0
318 -566 -319 0
318 566 -322 0
-318 566 322 0
-318 -566 319 0
319 -567 -320 0
319 567 -321 0
-319 567 321 0
-319 -567 320 0
320 -568 -228 0
320 568 -230 0
-320 568 230 0
-320 -568 228 0
321 -568 -231 0
-321 568 0
-321 231 0
322 -567 -323 0
-322 567 0
-322 323 0
323 -568 -234 0
-323 568 0
-323 234 0
324 -6 28 -333 0
324 -6 -28 -325 0
-324 6 0
-324 -28 325 0
-324 28 333 0
-325 -30 326 0
-325 30 330 0
325 -30 -326 0
325 30 -330 0
-326 -32 327 0
-326 32 329 0
326 -32 -327 0
326 32 -329 0
-327 -34 328 0
-327 34 270 0
327 34 -270 0
327 -34 -328 0
328 -506 36 0
328 -505 -36 0
-328 506 36 0
-328 505 -36 0
329 -34 -269 0
329 34 -272 0
-329 34 272 0
-329 -34 269 0
330 -32 -331 0
330 32 -332 0
-330 32 332 0
-330 -32 331 0
331 -34 -273 0
331 34 -276 0
-331 34 276 0
-331 -34 273 0
332 -34 -277 0
332 34 -279 0
-332 34 279 0
-332 -34 277 0
333 -30 -334 0
333 30 -337 0
-333 30 337 0
-333 -30 334 0
334 -32 -335 0
334 32 -336 0
-334 32 336 0
-334 -32 335 0
335 -34 -280 0
335 34 -284 0
-335 34 284 0
-335 -34 280 0
336 -34 -285 0
336 34 -287 0
-336 34 287 0
-336 -34 285 0
337 -32 -338 0
337 32 -339 0
-337 32 339 0
-337 -32 338 0
338 -34 -288 0
338 34 -291 0
-338 34 291 0
-338 -34 288 0
339 -34 -292 0
339 34 -340 0
-339 -34 292 0
-339 34 340 0
-340 536 36 0
-340 535 536 0
340 -536 0
340 -535 -36 0
341 564 -207 -355 0
341 -564 -207 -342 0
-341 207 0
-341 -564 342 0
-341 564 355 0
342 -565 -343 0
342 565 -352 0
-342 565 352 0
-342 -565 343 0
343 -566 -344 0
343 566 -351 0
-343 566 351 0
-343 -566 344 0
344 567 -298 0
344 -567 -345 0
-344 -567 345 0
-344 567 298 0
345 568 -66 0
345 -568 67 -346 0
-345 568 66 0
-345 -568 -67 0
-345 -568 346 0
-346 -532 206 0
-346 532 347 0
346 -532 -206 0
346 532 -347 0
-347 -533 175 0
-347 533 348 0
347 -533 -175 0
347 533 -348 0
-348 534 349 0
-348 -534 142 0
348 -534 -142 0
348 534 -349 0
349 -535 -100 0
349 535 -350 0
-349 535 350 0
-349 -535 100 0
350 -506 -536 0
350 -505 536 0
-350 505 536 0
-350 506 -536 0
351 -567 -299 0
351 567 -301 0
-351 567 301 0
-351 -567 299 0
352 -566 -353 0
352 566 -354 0
-352 566 354 0
-352 -566 353 0
353 -567 -302 0
353 567 -305 0
-353 567 305 0
-353 -567 302 0
354 -567 -306 0
354 567 -308 0
-354 567 308 0
-354 -567 306 0
355 -565 -356 0
355 565 -359 0
-355 565 359 0
-355 -565 356 0
356 -566 -357 0
356 566 -358 0
-356 566 358 0
-356 -566 357 0
357 -567 -309 0
357 567 -313 0
-357 567 313 0
-357 -567 309 0
358 -567 -314 0
358 567 -316 0
-358 567 316 0
-358 -567 314 0
359 -566 -360 0
359 566 -361 0
-359 566 361 0
-359 -566 360 0
360 -567 -317 0
360 567 -320 0
-360 567 320 0
-360 -567 317 0
361 -567 -321 0
361 567 -323 0
-361 567 323 0
-361 -567 321 0
-362 363 394 398 402 0
-362 363 -394 -398 402 0
362 -402 0
362 -394 398 0
362 -363 0
362 394 -398 0
-363 364 388 392 0
-363 364 -388 -392 0
363 -364 0
363 -388 392 0
363 388 -392 0
-364 365 371 375 379 0
-364 -365 -371 375 379 0
364 -375 0
364 -365 371 0
364 -379 0
364 365 -371 0
365 -366 -369 0
-365 366 0
-365 369 0
366 -562 -563 -367 -368 0
-366 368 0
-366 562 0
-366 367 0
-366 563 0
367 -557 -10 -15 -20 0
-367 20 0
-367 557 0
-367 15 0
-367 10 0
368 -558 -561 -564 -21 0
-368 21 0
-368 558 0
-368 564 0
-368 561 0
369 -565 -370 0
-369 565 0
-369 370 0
370 -566 -261 0
370 566 -263 0
-370 566 263 0
-370 -566 261 0
371 -372 -373 0
-371 372 0
-371 373 0
372 -6 -28 0
-372 6 0
-372 28 0
373 -30 -374 0
-373 30 0
-373 374 0
374 -32 -247 0
374 32 -249 0
-374 32 249 0
-374 -32 247 0
375 -366 -376 0
-375 366 0
-375 376 0
376 -565 -377 0
376 565 -378 0
-376 565 378 0
-376 -565 377 0
377 -566 -218 0
377 566 -225 0
-377 566 225 0
-377 -566 218 0
378 -566 -232 0
-378 566 0
-378 232 0
379 -380 384 0
-379 380 0
-379 -384 0
380 -366 -381 0
-380 366 0
-380 381 0
381 -565 -382 0
381 565 -383 0
-381 565 383 0
-381 -565 382 0
382 -566 -315 0
382 566 -319 0
-382 566 319 0
-382 -566 315 0
383 -566 -322 0
-383 566 0
-383 322 0
384 -372 -385 0
-384 372 0
-384 385 0
385 -30 -386 0
385 30 -387 0
-385 30 387 0
-385 -30 386 0
386 -32 -286 0
386 32 -290 0
-386 32 290 0
-386 -32 286 0
387 535 -536 -567 -32 0
-387 -535 0
-387 32 0
-387 567 0
-387 536 0
388 -564 -389 -390 0
-388 564 0
-388 389 0
-388 390 0
389 -558 -13 -21 -367 0
-389 367 0
-389 558 0
-389 21 0
-389 13 0
-390 -565 391 0
-390 565 370 0
390 565 -370 0
390 -565 -391 0
391 -566 -257 0
391 566 -260 0
-391 566 260 0
-391 -566 257 0
392 -30 -372 -393 0
392 30 -372 -374 0
-392 372 0
-392 -30 393 0
-392 30 374 0
393 -32 -243 0
393 32 -246 0
-393 32 246 0
-393 -32 243 0
394 564 -389 -397 0
394 -564 -389 -395 0
-394 389 0
-394 -564 395 0
-394 564 397 0
-395 -565 396 0
-395 565 382 0
395 565 -382 0
395 -565 -396 0
396 -566 -307 0
396 566 -312 0
-396 566 312 0
-396 -566 307 0
397 -565 -383 0
-397 565 0
-397 383 0
398 -6 28 -401 0
398 -6 -28 -399 0
-398 6 0
-398 -28 399 0
-398 28 401 0
399 30 -386 0
399 -30 -400 0
-399 -30 400 0
-399 30 386 0
400 -32 -278 0
400 32 -283 0
-400 32 283 0
-400 -32 278 0
401 -30 -387 0
-401 30 0
-401 387 0
-402 372 403 0
-402 403 419 0
-402 403 -420 0
402 -403 0
402 -372 -419 420 0
-403 404 415 418 0
-403 404 -417 418 0
403 -404 0
403 -418 0
403 -415 417 0
-404 405 407 0
-404 372 407 0
-404 -406 407 0
404 -407 0
404 -372 -405 406 0
405 -30 -56 0
-405 30 0
-405 56 0
406 -565 -224 0
-406 565 0
-406 224 0
-407 408 410 0
-407 -409 410 0
-407 372 410 0
407 -410 0
407 -372 -408 409 0
408 -30 -289 0
-408 30 0
-408 289 0
409 -565 -318 0
-409 565 0
-409 318 0
410 366 -372 -413 0
410 -372 411 -413 0
-410 413 0
-410 372 0
-410 -366 -411 0
411 -565 -412 0
-411 565 0
-411 412 0
412 -566 -361 0
-412 566 0
-412 361 0
413 -30 -414 0
-413 30 0
-413 414 0
414 -32 -339 0
-414 32 0
-414 339 0
415 -372 -416 0
-415 372 0
-415 416 0
416 -30 -248 0
-416 30 0
-416 248 0
417 -565 -262 0
-417 565 0
-417 262 0
418 366 -372 -401 0
418 -372 397 -401 0
-418 401 0
-418 372 0
-418 -366 -397 0
419 -30 -337 0
-419 30 0
-419 337 0
420 -565 -359 0
-420 565 0
-420 359 0
-421 422 435 439 443 0
-421 422 -435 -439 443 0
421 -443 0
421 -435 439 0
421 -422 0
421 435 -439 0
-422 423 425 -427 -431 0
-422 -423 -425 -427 -431 0
-422 423 425 427 431 0
-422 -423 -425 427 431 0
422 423 -425 0
422 -423 425 0
422 427 -431 0
422 -427 431 0
423 -564 -389 -424 0
423 564 -389 -417 0
-423 389 0
-423 -564 424 0
-423 564 417 0
424 -565 -255 0
424 565 -259 0
-424 565 259 0
-424 -565 255 0
425 -6 -28 -426 0
425 -6 28 -416 0
-425 6 0
-425 -28 426 0
-425 28 416 0
426 -30 -241 0
426 30 -245 0
-426 30 245 0
-426 -30 241 0
427 -564 -389 -428 0
427 564 -389 -411 0
-427 389 0
-427 -564 428 0
-427 564 411 0
428 565 -429 0
428 -565 -430 0
-428 -565 430 0
-428 565 429 0
429 -566 -358 0
429 566 -360 0
-429 566 360 0
-429 -566 358 0
430 -566 -354 0
430 566 -357 0
-430 566 357 0
-430 -566 354 0
431 -6 -28 -432 0
431 -6 28 -413 0
-431 6 0
-431 -28 432 0
-431 28 413 0
432 -30 -433 0
432 30 -434 0
-432 30 434 0
-432 -30 433 0
433 -32 -332 0
433 32 -335 0
-433 32 335 0
-433 -32 332 0
434 -32 -336 0
434 32 -338 0
-434 32 338 0
-434 -32 336 0
435 564 -389 -438 0
435 -564 -389 -436 0
-435 389 0
-435 -564 436 0
-435 564 438 0
436 565 -430 0
436 -565 -437 0
-436 -565 437 0
-436 565 430 0
437 -566 -351 0
437 566 -353 0
-437 566 353 0
-437 -566 351 0
438 565 -412 0
438 -565 -429 0
-438 -565 429 0
-438 565 412 0
439 -6 28 -442 0
439 -6 -28 -440 0
-439 6 0
-439 -28 440 0
-439 28 442 0
-440 -30 441 0
-440 30 433 0
440 30 -433 0
440 -30 -441 0
-441 32 331 0
-441 -32 329 0
441 -32 -329 0
441 32 -331 0
442 30 -414 0
442 -30 -434 0
-442 -30 434 0
-442 30 414 0
-443 447 450 452 0
-443 -444 -450 -452 0
-443 -444 450 452 0
-443 447 -450 -452 0
443 450 -452 0
443 -450 452 0
443 444 -447 0
444 564 -369 -389 0
444 -564 -389 -445 0
-444 389 0
-444 -564 445 0
-444 564 369 0
445 565 -391 0
445 -565 -446 0
-445 -565 446 0
-445 565 391 0
446 -566 -254 0
446 566 -256 0
-446 566 256 0
-446 -566 254 0
447 -6 -28 -448 0
447 -6 28 -373 0
-447 6 0
-447 -28 448 0
-447 28 373 0
448 30 -393 0
448 -30 -449 0
-448 -30 449 0
-448 30 393 0
449 -32 -240 0
449 32 -242 0
-449 32 242 0
-449 -32 240 0
450 -564 -389 -451 0
450 564 -389 -406 0
-450 389 0
-450 -564 451 0
-450 564 406 0
451 -565 -180 0
451 565 -210 0
-451 565 210 0
-451 -565 180 0
452 -6 -28 -453 0
452 -6 28 -405 0
-452 6 0
-452 -28 453 0
-452 28 405 0
453 -30 -41 0
453 30 -49 0
-453 30 49 0
-453 -30 41 0
-454 -455 465 472 0
-454 459 465 472 0
454 -472 0
454 -465 0
454 455 -459 0
455 564 -376 -389 0
455 -564 -389 -456 0
-455 389 0
-455 -564 456 0
-455 564 376 0
456 -565 -457 0
456 565 -458 0
-456 565 458 0
-456 -565 457 0
457 -566 -151 0
457 566 -181 0
-457 566 181 0
-457 -566 151 0
458 -566 -196 0
458 566 -211 0
-458 566 211 0
-458 -566 196 0
459 -6 -460 0
-459 6 0
-459 460 0
-460 -28 461 0
-460 28 30 0
-460 28 464 0
460 -28 -461 0
460 28 -30 -464 0
-461 -30 462 0
-461 30 463 0
461 -30 -462 0
461 30 -463 0
-462 32 42 0
-462 -32 38 0
462 -32 -38 0
462 32 -42 0
463 -32 -45 0
463 32 -50 0
-463 32 50 0
-463 -32 45 0
464 -32 -53 0
464 32 -57 0
-464 32 57 0
-464 -32 53 0
-465 265 -466 -469 0
-465 -294 466 469 0
-465 265 466 469 0
-465 -294 -466 -469 0
465 466 -469 0
465 -466 469 0
465 -265 294 0
466 564 -381 -389 0
466 -564 -389 -467 0
-466 389 0
-466 -564 467 0
-466 564 381 0
467 565 -396 0
467 -565 -468 0
-467 -565 468 0
-467 565 396 0
468 -566 -300 0
468 566 -304 0
-468 566 304 0
-468 -566 300 0
469 -6 28 -385 0
469 -6 -28 -470 0
-469 6 0
-469 -28 470 0
-469 28 385 0
-470 -30 471 0
-470 30 400 0
470 30 -400 0
470 -30 -471 0
-471 32 275 0
-471 -32 271 0
471 -32 -271 0
471 32 -275 0
-472 473 494 503 504 0
472 -504 0
472 -473 0
472 -503 0
472 -494 0
-473 474 485 -490 -492 0
-473 474 485 490 492 0
473 -485 0
473 490 -492 0
473 -474 0
473 -490 492 0
-474 444 475 480 0
-474 -447 475 480 0
474 -480 0
474 -475 0
474 -444 447 0
-475 476 477 -478 -479 0
-475 -476 -477 -478 -479 0
-475 476 477 478 479 0
-475 -476 -477 478 479 0
475 476 -477 0
475 -476 477 0
475 478 -479 0
475 -478 479 0
476 -310 -366 0
-476 310 0
-476 366 0
477 -281 -372 0
-477 281 0
-477 372 0
478 -355 -366 0
-478 355 0
-478 366 0
479 -333 -372 0
-479 333 0
-479 372 0
-480 481 482 -483 -484 0
-480 -481 -482 -483 -484 0
-480 481 482 483 484 0
-480 -481 -482 483 484 0
480 481 -482 0
480 -481 482 0
480 483 -484 0
480 -483 484 0
481 -258 -366 0
-481 258 0
-481 366 0
482 -244 -372 0
-482 244 0
-482 372 0
483 -209 -366 0
-483 209 0
-483 366 0
484 -48 -372 0
-484 48 0
-484 372 0
485 486 -488 0
485 -486 488 0
-485 -486 -488 0
-485 486 488 0
486 -564 -389 -487 0
486 564 -389 -409 0
-486 389 0
-486 -564 487 0
-486 564 409 0
487 -565 -303 0
487 565 -311 0
-487 565 311 0
-487 -565 303 0
488 -6 -28 -489 0
488 -6 28 -408 0
-488 6 0
-488 -28 489 0
-488 28 408 0
489 -30 -274 0
489 30 -282 0
-489 30 282 0
-489 -30 274 0
490 -564 -389 -491 0
490 564 -389 -420 0
-490 389 0
-490 -564 491 0
-490 564 420 0
491 -565 -352 0
491 565 -356 0
-491 565 356 0
-491 -565 352 0
492 -6 -28 -493 0
492 -6 28 -419 0
-492 6 0
-492 -28 493 0
-492 28 419 0
493 -30 -330 0
493 30 -334 0
-493 30 334 0
-493 -30 330 0
-494 -495 -498 500 0
-494 495 498 500 0
494 -500 0
494 -495 498 0
494 495 -498 0
495 564 -389 -497 0
495 -564 -389 -496 0
-495 389 0
-495 -564 496 0
-495 564 497 0
-496 -565 458 0
-496 565 377 0
496 565 -377 0
496 -565 -458 0
497 -565 -378 0
-497 565 0
-497 378 0
498 -372 499 0
-498 372 0
-498 -499 0
499 -28 30 464 0
499 -28 -30 463 0
-499 28 0
-499 -30 -463 0
-499 30 -464 0
-500 384 501 502 0
-500 -380 -501 -502 0
-500 -380 501 502 0
-500 384 -501 -502 0
500 501 -502 0
500 -501 502 0
500 380 -384 0
501 -366 -438 0
-501 366 0
-501 438 0
502 -372 -442 0
-502 372 0
-502 442 0
-503 -250 324 0
-503 236 -341 0
-503 236 324 0
-503 -250 -341 0
503 -236 250 0
503 -324 341 0
-504 -61 455 0
-504 5 -459 0
-504 5 455 0
-504 -61 -459 0
504 -5 61 0
504 -455 459 0
-569 0
2 0

